min: c;

c = 3.12531548087506 * u5_t4_h2 + 3.12531548087506 * u5_t7_h2 + 2.97474957758993 * u5_t4_h3 + 2.97474957758993 * u5_t7_h3 + 3.36401544849232 * u5_t1_h4 + 3.36401544849232 * u5_t3_h4 + 3.36401544849232 * u5_t4_h4 + 3.36401544849232 * u5_t7_h4 + 3.45794173553911 * u5_t1_h5 + 3.45794173553911 * u5_t3_h5 + 3.45794173553911 * u5_t4_h5 + 3.45794173553911 * u5_t7_h5 + 4.38163915869592 * u5_t1_h6 + 4.38163915869592 * u5_t3_h6 + 4.38163915869592 * u5_t4_h6 + 4.38163915869592 * u5_t6_h6 + 4.38163915869592 * u5_t7_h6 + 4.03064512811367 * u5_t1_h7 + 4.03064512811367 * u5_t3_h7 + 4.03064512811367 * u5_t4_h7 + 4.03064512811367 * u5_t6_h7 + 5.74624463163691 * u5_t1_h8 + 5.74624463163691 * u5_t3_h8 + 5.74624463163691 * u5_t4_h8 + 5.74624463163691 * u5_t6_h8 + 4.80963001774659 * u5_t1_h9 + 4.80963001774659 * u5_t3_h9 + 4.80963001774659 * u5_t4_h9 + 4.80963001774659 * u5_t6_h9 + 5.0980064463748 * u5_t1_h10 + 5.0980064463748 * u5_t3_h10 + 5.0980064463748 * u5_t4_h10 + 5.0980064463748 * u5_t6_h10 + 3.63128501497166 * u5_t1_h11 + 3.63128501497166 * u5_t3_h11 + 3.63128501497166 * u5_t4_h11 + 3.63128501497166 * u5_t6_h11 + 6.11046462231349 * u5_t1_h12 + 6.11046462231349 * u5_t3_h12 + 6.11046462231349 * u5_t4_h12 + 6.11046462231349 * u5_t6_h12 + 4.55118014589244 * u5_t1_h13 + 4.55118014589244 * u5_t3_h13 + 4.55118014589244 * u5_t4_h13 + 4.55118014589244 * u5_t6_h13 + 4.55118014589244 * u5_t8_h13 + 5.39617523121657 * u5_t1_h14 + 5.39617523121657 * u5_t3_h14 + 5.39617523121657 * u5_t4_h14 + 5.39617523121657 * u5_t6_h14 + 5.39617523121657 * u5_t8_h14 + 6.07215716443554 * u5_t1_h15 + 6.07215716443554 * u5_t3_h15 + 6.07215716443554 * u5_t4_h15 + 6.07215716443554 * u5_t6_h15 + 6.07215716443554 * u5_t8_h15 + 6.07215716443554 * u5_t9_h15 + 5.53502833873749 * u5_t1_h16 + 5.53502833873749 * u5_t3_h16 + 5.53502833873749 * u5_t4_h16 + 5.53502833873749 * u5_t5_h16 + 5.53502833873749 * u5_t6_h16 + 5.53502833873749 * u5_t8_h16 + 5.53502833873749 * u5_t9_h16 + 6.73122007880936 * u5_t1_h17 + 6.73122007880936 * u5_t5_h17 + 6.73122007880936 * u5_t6_h17 + 6.73122007880936 * u5_t8_h17 + 6.73122007880936 * u5_t9_h17 + 6.73122007880936 * u5_t10_h17 + 6.59586489227292 * u5_t1_h18 + 6.59586489227292 * u5_t2_h18 + 6.59586489227292 * u5_t5_h18 + 6.59586489227292 * u5_t6_h18 + 6.59586489227292 * u5_t9_h18 + 6.59586489227292 * u5_t10_h18 + 5.131004913845 * u5_t1_h19 + 5.131004913845 * u5_t2_h19 + 5.131004913845 * u5_t5_h19 + 5.131004913845 * u5_t9_h19 + 5.131004913845 * u5_t10_h19 + 5.77373446514039 * u5_t1_h20 + 5.77373446514039 * u5_t2_h20 + 5.77373446514039 * u5_t5_h20 + 5.77373446514039 * u5_t9_h20 + 5.77373446514039 * u5_t10_h20 + 5.60304618202245 * u5_t2_h21 + 5.60304618202245 * u5_t5_h21 + 5.60304618202245 * u5_t9_h21 + 5.60304618202245 * u5_t10_h21 + 5.45158769950418 * u5_t2_h22 + 5.45158769950418 * u5_t5_h22 + 5.45158769950418 * u5_t9_h22 + 5.45158769950418 * u5_t10_h22 + 5.77117226402186 * u5_t5_h23 + 5.77117226402186 * u5_t9_h23 + 5.77117226402186 * u5_t10_h23;
0 <= u5_t1_h4 <= 1;
0 <= u5_t1_h5 <= 1;
0 <= u5_t1_h6 <= 1;
0 <= u5_t1_h7 <= 1;
0 <= u5_t1_h8 <= 1;
0 <= u5_t1_h9 <= 1;
0 <= u5_t1_h10 <= 1;
0 <= u5_t1_h11 <= 1;
0 <= u5_t1_h12 <= 1;
0 <= u5_t1_h13 <= 1;
0 <= u5_t1_h14 <= 1;
0 <= u5_t1_h15 <= 1;
0 <= u5_t1_h16 <= 1;
0 <= u5_t1_h17 <= 1;
0 <= u5_t1_h18 <= 1;
0 <= u5_t1_h19 <= 1;
0 <= u5_t1_h20 <= 1;
u5_t1_h4 + u5_t1_h5 + u5_t1_h6 + u5_t1_h7 + u5_t1_h8 + u5_t1_h9 + u5_t1_h10 + u5_t1_h11 + u5_t1_h12 + u5_t1_h13 + u5_t1_h14 + u5_t1_h15 + u5_t1_h16 + u5_t1_h17 + u5_t1_h18 + u5_t1_h19 + u5_t1_h20 = 1;
0 <= u5_t2_h18 <= 1;
0 <= u5_t2_h19 <= 1;
0 <= u5_t2_h20 <= 1;
0 <= u5_t2_h21 <= 1;
0 <= u5_t2_h22 <= 1;
u5_t2_h18 + u5_t2_h19 + u5_t2_h20 + u5_t2_h21 + u5_t2_h22 = 3;
0 <= u5_t3_h4 <= 1;
0 <= u5_t3_h5 <= 1;
0 <= u5_t3_h6 <= 1;
0 <= u5_t3_h7 <= 1;
0 <= u5_t3_h8 <= 1;
0 <= u5_t3_h9 <= 1;
0 <= u5_t3_h10 <= 1;
0 <= u5_t3_h11 <= 1;
0 <= u5_t3_h12 <= 1;
0 <= u5_t3_h13 <= 1;
0 <= u5_t3_h14 <= 1;
0 <= u5_t3_h15 <= 1;
0 <= u5_t3_h16 <= 1;
u5_t3_h4 + u5_t3_h5 + u5_t3_h6 + u5_t3_h7 + u5_t3_h8 + u5_t3_h9 + u5_t3_h10 + u5_t3_h11 + u5_t3_h12 + u5_t3_h13 + u5_t3_h14 + u5_t3_h15 + u5_t3_h16 = 1;
0 <= u5_t4_h2 <= 1;
0 <= u5_t4_h3 <= 1;
0 <= u5_t4_h4 <= 1;
0 <= u5_t4_h5 <= 1;
0 <= u5_t4_h6 <= 1;
0 <= u5_t4_h7 <= 1;
0 <= u5_t4_h8 <= 1;
0 <= u5_t4_h9 <= 1;
0 <= u5_t4_h10 <= 1;
0 <= u5_t4_h11 <= 1;
0 <= u5_t4_h12 <= 1;
0 <= u5_t4_h13 <= 1;
0 <= u5_t4_h14 <= 1;
0 <= u5_t4_h15 <= 1;
0 <= u5_t4_h16 <= 1;
u5_t4_h2 + u5_t4_h3 + u5_t4_h4 + u5_t4_h5 + u5_t4_h6 + u5_t4_h7 + u5_t4_h8 + u5_t4_h9 + u5_t4_h10 + u5_t4_h11 + u5_t4_h12 + u5_t4_h13 + u5_t4_h14 + u5_t4_h15 + u5_t4_h16 = 3;
0 <= u5_t5_h16 <= 1;
0 <= u5_t5_h17 <= 1;
0 <= u5_t5_h18 <= 1;
0 <= u5_t5_h19 <= 1;
0 <= u5_t5_h20 <= 1;
0 <= u5_t5_h21 <= 1;
0 <= u5_t5_h22 <= 1;
0 <= u5_t5_h23 <= 1;
u5_t5_h16 + u5_t5_h17 + u5_t5_h18 + u5_t5_h19 + u5_t5_h20 + u5_t5_h21 + u5_t5_h22 + u5_t5_h23 = 2;
0 <= u5_t6_h6 <= 1;
0 <= u5_t6_h7 <= 1;
0 <= u5_t6_h8 <= 1;
0 <= u5_t6_h9 <= 1;
0 <= u5_t6_h10 <= 1;
0 <= u5_t6_h11 <= 1;
0 <= u5_t6_h12 <= 1;
0 <= u5_t6_h13 <= 1;
0 <= u5_t6_h14 <= 1;
0 <= u5_t6_h15 <= 1;
0 <= u5_t6_h16 <= 1;
0 <= u5_t6_h17 <= 1;
0 <= u5_t6_h18 <= 1;
u5_t6_h6 + u5_t6_h7 + u5_t6_h8 + u5_t6_h9 + u5_t6_h10 + u5_t6_h11 + u5_t6_h12 + u5_t6_h13 + u5_t6_h14 + u5_t6_h15 + u5_t6_h16 + u5_t6_h17 + u5_t6_h18 = 2;
0 <= u5_t7_h2 <= 1;
0 <= u5_t7_h3 <= 1;
0 <= u5_t7_h4 <= 1;
0 <= u5_t7_h5 <= 1;
0 <= u5_t7_h6 <= 1;
u5_t7_h2 + u5_t7_h3 + u5_t7_h4 + u5_t7_h5 + u5_t7_h6 = 1;
0 <= u5_t8_h13 <= 1;
0 <= u5_t8_h14 <= 1;
0 <= u5_t8_h15 <= 1;
0 <= u5_t8_h16 <= 1;
0 <= u5_t8_h17 <= 1;
u5_t8_h13 + u5_t8_h14 + u5_t8_h15 + u5_t8_h16 + u5_t8_h17 = 3;
0 <= u5_t9_h15 <= 1;
0 <= u5_t9_h16 <= 1;
0 <= u5_t9_h17 <= 1;
0 <= u5_t9_h18 <= 1;
0 <= u5_t9_h19 <= 1;
0 <= u5_t9_h20 <= 1;
0 <= u5_t9_h21 <= 1;
0 <= u5_t9_h22 <= 1;
0 <= u5_t9_h23 <= 1;
u5_t9_h15 + u5_t9_h16 + u5_t9_h17 + u5_t9_h18 + u5_t9_h19 + u5_t9_h20 + u5_t9_h21 + u5_t9_h22 + u5_t9_h23 = 1;
0 <= u5_t10_h17 <= 1;
0 <= u5_t10_h18 <= 1;
0 <= u5_t10_h19 <= 1;
0 <= u5_t10_h20 <= 1;
0 <= u5_t10_h21 <= 1;
0 <= u5_t10_h22 <= 1;
0 <= u5_t10_h23 <= 1;
u5_t10_h17 + u5_t10_h18 + u5_t10_h19 + u5_t10_h20 + u5_t10_h21 + u5_t10_h22 + u5_t10_h23 = 1;
